G1 = [| 991, 1030, 1046, 1081, 4148,
      | 370, 408, 396, 387, 1551 |];
% flatzinc: error: variables of type `var float' are not supported by the FD solver backend.
%      | 247.75, 257.5, 261.5, 270.25, 1037 |];
L11 = 2;
L12 = 5;

G2 = [| 1, 2, 3, 4,
      | 353, 370, 175, 93,
      | 378, 408, 146, 98,
      | 396, 387, 167, 96,
      | 387, 386, 203, 105,
      | 1514, 1551, 691, 392,
      | 2, 1, 3, 4 |];
L21 = 7;
L22 = 4;

is_same_group = false;
